Please solve the following SAT Problem encoded in DIMACS format, only return a single solution assignment without explanations, if there is any: 
p cnf 3 5
-3 2 -1 0
3 2 -1 0
-1 2 -3 0
-1 -3 2 0
-1 -3 2 0

